p cnf 45 51
-44 -18 0
-32 -3 0
8 10 0
9 0
-24 41 0
-15 -44 -3 -25 0
-13 0
-12 0
25 -26 31 0
35 5 14 -17 -2 0
-44 45 0
-31 -24 -21 15 21 0
-39 0
-43 -31 28 -27 0
-11 -41 0
42 -44 -28 0
37 0
24 0
-20 4 -10 0
-20 13 0
-32 35 10 -43 26 0
-39 -37 0
-23 0
17 -38 4 0
35 6 -18 -12 -40 0
15 0
-36 0
37 7 -41 -8 -7 0
32 -18 -14 27 31 0
-23 0
-30 27 -25 0
-27 40 8 10 20 0
35 -4 0
10 -29 31 7 0
3 0
26 37 -1 0
2 -24 -9 -6 31 0
1 -35 0
9 -17 16 -40 -4 0
2 -44 -10 -8 31 0
17 -4 -23 9 0
-16 0
-5 39 0
-20 21 -34 0
-23 34 -9 0
3 -25 -17 -40 24 0
-15 34 -23 0
32 -20 -18 17 -11 0
-40 11 0
11 20 44 0
16 -31 -44 -2 0
